# Objective value = 38.0
xobj 38.0
x0_r1 -1.0917356835183842e-15
x1_r1 -1.6202774663414896e-15
x2_r1 -0.0
x3_r1 -5.551115123125783e-17
y0_r1 -0.0
y1_r1 -2.1870831155238607e-15
y2_r1 -2.2981054179863764e-15
y3_r1 -0.0
SH0_r1 -2.131571964292603e-15
SL0_r1 -0.0
x4_r1 3.8537966220997255e-16
x5_r1 -7.918673854655223e-16
x6_r1 -1.4675760606763788e-15
x7_r1 -1.7448336612352344e-15
y4_r1 1.5720931501039814e-18
y5_r1 2.5250526496101156e-15
y6_r1 6.54126275714817e-16
y7_r1 -0.0
SH1_r1 -0.0
SL1_r1 -0.0
x8_r1 -0.0
x9_r1 -0.0
x10_r1 -0.0
x11_r1 -0.0
y8_r1 9.812029660993815e-18
y9_r1 6.993104012531504e-17
y10_r1 -5.551115123125783e-17
y11_r1 -0.0
SH2_r1 -0.0
SL2_r1 -0.0
x12_r1 -5.551115123125783e-17
x13_r1 -2.7755575615628914e-17
x14_r1 -0.0
x15_r1 -2.220446049250313e-16
y12_r1 -0.0
y13_r1 -0.0
y14_r1 0.0
y15_r1 -0.0
SH3_r1 0.0
SL3_r1 -0.0
x16_r1 -0.0
x17_r1 -0.0
x18_r1 -0.0
x19_r1 -0.0
y16_r1 -0.0
y17_r1 0.0
y18_r1 0.0
y19_r1 -0.0
SH4_r1 5.551115123125783e-17
SL4_r1 -0.0
x20_r1 -0.0
x21_r1 -0.0
x22_r1 -0.0
x23_r1 -0.0
y20_r1 -0.0
y21_r1 1.4988010832439613e-15
y22_r1 -9.48026379621325e-16
y23_r1 1.4432899320127035e-15
SH5_r1 1.4988010832439613e-15
SL5_r1 -0.0
x24_r1 -0.0
x25_r1 -0.0
x26_r1 -0.0
x27_r1 -0.0
y24_r1 -0.0
y25_r1 0.0
y26_r1 -0.0
y27_r1 0.0
SH6_r1 0.0
SL6_r1 -0.0
x28_r1 -0.0
x29_r1 -0.0
x30_r1 -0.0
x31_r1 5.551115123125783e-17
y28_r1 -0.0
y29_r1 -1.1102230246251565e-16
y30_r1 -5.551115123125783e-17
y31_r1 -0.0
SH7_r1 -5.551115123125783e-17
SL7_r1 -0.0
x32_r1 -0.0
x33_r1 -0.0
x34_r1 -0.0
x35_r1 -0.0
y32_r1 -0.0
y33_r1 1.1492543028346347e-17
y34_r1 9.75781955236954e-18
y35_r1 1.8648277366750676e-17
SH8_r1 1.1492543028346347e-17
SL8_r1 -0.0
x36_r1 1.2706849461530112e-16
x37_r1 4.7921736023859296e-17
x38_r1 -4.868067754459915e-17
x39_r1 4.174178364069192e-17
y36_r1 -0.0
y37_r1 1.5178830414797062e-18
y38_r1 -1.0299920638612292e-18
y39_r1 1.5178830414797062e-18
SH9_r1 -2.168404344971009e-18
SL9_r1 -0.0
x40_r1 -0.0
x41_r1 -0.0
x42_r1 -0.0
x43_r1 -0.0
y40_r1 -0.0
y41_r1 -0.0
y42_r1 -0.0
y43_r1 -0.0
SH10_r1 -0.0
SL10_r1 -0.0
x44_r1 0.0
x45_r1 0.0
x46_r1 -0.0
x47_r1 -0.0
y44_r1 -0.0
y45_r1 0.0
y46_r1 -0.0
y47_r1 0.0
SH11_r1 0.0
SL11_r1 -0.0
x48_r1 -8.881784197001252e-16
x49_r1 0.0
x50_r1 -4.440892098500626e-16
x51_r1 0.0
y48_r1 -0.0
y49_r1 -0.0
y50_r1 -0.0
y51_r1 -0.0
SH12_r1 2.220446049250313e-16
SL12_r1 -0.0
x52_r1 1.3877787807814457e-16
x53_r1 2.220446049250313e-16
x54_r1 -0.0
x55_r1 0.0
y52_r1 -0.0
y53_r1 2.7755575615628914e-16
y54_r1 0.0
y55_r1 0.0
SH13_r1 -0.0
SL13_r1 -0.0
x56_r1 1.1102230246251565e-16
x57_r1 -2.220446049250313e-16
x58_r1 0.0
x59_r1 -4.440892098500626e-16
y56_r1 -0.0
y57_r1 4.440892098500626e-16
y58_r1 -0.0
y59_r1 0.0
SH14_r1 -0.0
SL14_r1 -0.0
x60_r1 1.0
x61_r1 -0.0
x62_r1 1.0
x63_r1 1.0000000000000018
y60_r1 -0.0
y61_r1 -0.0
y62_r1 -0.0
y63_r1 1.0
SH15_r1 0.9999999999999999
SL15_r1 1.0
y0_r2 -0.0
y1_r2 -0.0
y2_r2 0.0
y3_r2 7.914675859144182e-18
SH0_r2 5.963111948670274e-19
SL0_r2 -0.0
y4_r2 -0.0
y5_r2 -0.0
y6_r2 -0.0
y7_r2 -7.209944447028604e-18
SH1_r2 -7.209944447028604e-18
SL1_r2 -0.0
y8_r2 -0.0
y9_r2 0.0
y10_r2 0.0
y11_r2 -0.0
SH2_r2 0.0
SL2_r2 -0.0
y12_r2 -0.0
y13_r2 -0.0
y14_r2 -0.0
y15_r2 -0.0
SH3_r2 0.0
SL3_r2 -0.0
y16_r2 -5.551115123125783e-17
y17_r2 2.464665976734462e-15
y18_r2 -0.0
y19_r2 1.6653345369377348e-16
SH4_r2 -0.0
SL4_r2 -0.0
y20_r2 2.220446049250313e-16
y21_r2 -2.220446049250313e-16
y22_r2 -0.0
y23_r2 0.0
SH5_r2 -6.938893903907228e-18
SL5_r2 -0.0
y24_r2 -9.648315132948504e-16
y25_r2 -2.409154825503204e-15
y26_r2 -0.0
y27_r2 -0.0
SH6_r2 -1.0204510847433568e-15
SL6_r2 -0.0
y28_r2 0.0
y29_r2 -2.220446049250313e-16
y30_r2 -0.0
y31_r2 -0.0
SH7_r2 0.0
SL7_r2 -0.0
y32_r2 0.0
y33_r2 -1.5298092653770468e-16
y34_r2 -0.0
y35_r2 0.0
SH8_r2 -0.0
SL8_r2 1.6464016565007067e-15
y36_r2 3.920475055707584e-16
y37_r2 -1.7603648573560893e-15
y38_r2 -0.0
y39_r2 -0.0
SH9_r2 -0.0
SL9_r2 -0.0
y40_r2 0.0
y41_r2 7.914675859144182e-18
y42_r2 -0.0
y43_r2 -1.745565497701662e-17
SH10_r2 -0.0
SL10_r2 -0.0
y44_r2 -0.0
y45_r2 -2.220446049250313e-16
y46_r2 -0.0
y47_r2 0.0
SH11_r2 -0.0
SL11_r2 -0.0
y48_r2 -0.0
y49_r2 -0.0
y50_r2 -0.0
y51_r2 -0.0
SH12_r2 0.0
SL12_r2 -0.0
y52_r2 0.0
y53_r2 1.4710455076283324e-15
y54_r2 -0.0
y55_r2 0.0
SH13_r2 -0.0
SL13_r2 -1.4155343563970746e-15
y56_r2 -2.2551405187698492e-17
y57_r2 3.0791341698588326e-17
y58_r2 -0.0
y59_r2 8.847089727481716e-17
SH14_r2 -2.3418766925686896e-17
SL14_r2 -4.7704895589362195e-17
y60_r2 0.9999999999999999
y61_r2 -1.1096809235389138e-16
y62_r2 -0.0
y63_r2 1.0
SH15_r2 1.0
SL15_r2 1.6306400674181987e-16
y0_r3 -0.0
y1_r3 -0.0
y2_r3 -0.0
y3_r3 -0.0
SH0_r3 -0.0
SL0_r3 -0.0
y4_r3 -1.124100812432971e-15
y5_r3 -1.8388068845354155e-16
y6_r3 0.0
y7_r3 2.3592239273284576e-16
SH1_r3 -5.620504062164855e-16
SL1_r3 -0.0
y8_r3 5.620504062164855e-16
y9_r3 5.030698080332741e-16
y10_r3 0.0
y11_r3 7.840950111415168e-16
SH2_r3 5.620504062164855e-16
SL2_r3 3.920475055707584e-16
y12_r3 1.0
y13_r3 2.255140518769849e-16
y14_r3 0.0
y15_r3 1.0
SH3_r3 1.0
SL3_r3 1.0755285551056204e-16
y16_r3 -0.0
y17_r3 0.0
y18_r3 0.0
y19_r3 -0.0
SH4_r3 0.0
SL4_r3 0.0
y20_r3 -0.0
y21_r3 0.0
y22_r3 2.7755575615628914e-17
y23_r3 -0.0
SH5_r3 8.326672684688674e-17
SL5_r3 -0.0
y24_r3 -0.0
y25_r3 -5.551115123125783e-17
y26_r3 0.0
y27_r3 -0.0
SH6_r3 -5.551115123125783e-17
SL6_r3 -0.0
y28_r3 -0.0
y29_r3 0.0
y30_r3 0.0
y31_r3 -0.0
SH7_r3 -1.0397498834135988e-16
SL7_r3 -0.0
y32_r3 0.0
y33_r3 0.0
y34_r3 -0.0
y35_r3 -0.0
SH8_r3 -0.0
SL8_r3 0.0
y36_r3 -0.0
y37_r3 -0.0
y38_r3 -0.0
y39_r3 -0.0
SH9_r3 -0.0
SL9_r3 -0.0
y40_r3 -0.0
y41_r3 -0.0
y42_r3 0.0
y43_r3 0.0
SH10_r3 -0.0
SL10_r3 0.0
y44_r3 -0.0
y45_r3 -0.0
y46_r3 -0.0
y47_r3 -0.0
SH11_r3 -0.0
SL11_r3 0.0
y48_r3 -7.209944447028604e-18
y49_r3 -0.0
y50_r3 -0.0
y51_r3 -1.0408340855860843e-17
SH12_r3 -5.312590645178972e-18
SL12_r3 -0.0
y52_r3 0.0
y53_r3 -5.551115123125783e-17
y54_r3 0.0
y55_r3 0.0
SH13_r3 -0.0
SL13_r3 -0.0
y56_r3 -2.3418766925686896e-16
y57_r3 -5.0306980803327406e-17
y58_r3 0.0
y59_r3 0.0
SH14_r3 -0.0
SL14_r3 -0.0
y60_r3 1.0
y61_r3 5.659535340374333e-17
y62_r3 0.0
y63_r3 0.9999999999999996
SH15_r3 1.0
SL15_r3 -2.168404344971009e-17
y0_r4 0.0
y1_r4 4.0072112295064244e-16
y2_r4 0.9999999999999999
y3_r4 1.0
SH0_r4 1.0
SL0_r4 -0.0
y4_r4 -0.0
y5_r4 -0.0
y6_r4 -0.0
y7_r4 -0.0
SH1_r4 -0.0
SL1_r4 -0.0
y8_r4 0.0
y9_r4 0.0
y10_r4 -0.0
y11_r4 0.0
SH2_r4 0.0
SL2_r4 -0.0
y12_r4 0.0
y13_r4 4.0072112295064244e-16
y14_r4 0.9999999999999999
y15_r4 0.9999999999999997
SH3_r4 1.0
SL3_r4 -0.0
y16_r4 -0.0
y17_r4 3.920475055707584e-16
y18_r4 -2.688821387764051e-17
y19_r4 0.0
SH4_r4 3.920475055707584e-16
SL4_r4 -0.0
y20_r4 -0.0
y21_r4 0.0
y22_r4 0.0
y23_r4 -0.0
SH5_r4 0.0
SL5_r4 -0.0
y24_r4 -0.0
y25_r4 -0.0
y26_r4 0.0
y27_r4 0.0
SH6_r4 0.0
SL6_r4 -0.0
y28_r4 -0.0
y29_r4 -0.0
y30_r4 -0.0
y31_r4 -0.0
SH7_r4 -0.0
SL7_r4 -0.0
y32_r4 3.469446951953614e-18
y33_r4 0.0
y34_r4 0.0
y35_r4 -0.0
SH8_r4 -0.0
SL8_r4 4.85722573273506e-17
y36_r4 1.734723475976807e-18
y37_r4 0.0
y38_r4 0.0
y39_r4 -0.0
SH9_r4 -0.0
SL9_r4 -6.938893903907228e-18
y40_r4 -0.0
y41_r4 -0.0
y42_r4 -0.0
y43_r4 -0.0
SH10_r4 -0.0
SL10_r4 0.0
y44_r4 0.0
y45_r4 0.0
y46_r4 0.0
y47_r4 -0.0
SH11_r4 -0.0
SL11_r4 0.0
y48_r4 1.1709383462843448e-17
y49_r4 0.0
y50_r4 1.0
y51_r4 1.0
SH12_r4 1.0
SL12_r4 -0.0
y52_r4 -0.0
y53_r4 -0.0
y54_r4 -0.0
y55_r4 -0.0
SH13_r4 -0.0
SL13_r4 -0.0
y56_r4 -0.0
y57_r4 -0.0
y58_r4 -0.0
y59_r4 -0.0
SH14_r4 -0.0
SL14_r4 -0.0
y60_r4 -3.469446951953614e-18
y61_r4 0.0
y62_r4 1.0
y63_r4 1.0
SH15_r4 1.0
SL15_r4 -0.0
y0_r5 0.0
y1_r5 -0.0
y2_r5 -0.0
y3_r5 0.0
SH0_r5 -0.0
SL0_r5 0.0
y4_r5 -0.0
y5_r5 -0.0
y6_r5 -0.0
y7_r5 -0.0
SH1_r5 -0.0
SL1_r5 -0.0
y8_r5 3.469446951953614e-18
y9_r5 -0.0
y10_r5 -0.0
y11_r5 -3.469446951953614e-18
SH2_r5 -0.0
SL2_r5 -0.0
y12_r5 -2.1250362580715887e-17
y13_r5 -0.0
y14_r5 -0.0
y15_r5 -0.0
SH3_r5 -0.0
SL3_r5 -0.0
y16_r5 0.0
y17_r5 3.2786273695961654e-16
y18_r5 0.0
y19_r5 -0.0
SH4_r5 4.0245584642661925e-16
SL4_r5 0.0
y20_r5 -2.949029909160572e-16
y21_r5 2.684484579074109e-16
y22_r5 -0.0
y23_r5 -0.0
SH5_r5 2.476317761956892e-16
SL5_r5 -9.107298248878237e-17
y24_r5 -0.0
y25_r5 0.0
y26_r5 -0.0
y27_r5 -0.0
SH6_r5 -0.0
SL6_r5 -0.0
y28_r5 2.931682674400804e-16
y29_r5 0.0
y30_r5 -0.0
y31_r5 -0.0
SH7_r5 -0.0
SL7_r5 -0.0
y32_r5 4.327050870389648e-16
y33_r5 0.9999999999999999
y34_r5 -4.257661931350576e-16
y35_r5 -0.0
SH8_r5 0.9999999999999999
SL8_r5 0.0
y36_r5 7.112366251504909e-17
y37_r5 0.0
y38_r5 -4.336808689942018e-17
y39_r5 0.0
SH9_r5 -0.0
SL9_r5 -0.0
y40_r5 0.0
y41_r5 0.0
y42_r5 -0.0
y43_r5 0.0
SH10_r5 -0.0
SL10_r5 -0.0
y44_r5 1.0299920638612292e-16
y45_r5 0.9999999999999998
y46_r5 -4.292356400870112e-16
y47_r5 0.0
SH11_r5 1.0
SL11_r5 0.0
y48_r5 0.0
y49_r5 1.0
y50_r5 0.0
y51_r5 1.1817803680091998e-16
SH12_r5 1.0
SL12_r5 -2.500170209751573e-16
y52_r5 -0.0
y53_r5 0.0
y54_r5 0.0
y55_r5 0.0
SH13_r5 -0.0
SL13_r5 -0.0
y56_r5 -0.0
y57_r5 -0.0
y58_r5 -0.0
y59_r5 -0.0
SH14_r5 -0.0
SL14_r5 -0.0
y60_r5 0.0
y61_r5 1.0
y62_r5 0.0
y63_r5 0.0
SH15_r5 1.0
SL15_r5 -0.0
y0_r6 -0.0
y1_r6 -2.8406096919120216e-17
y2_r6 -0.0
y3_r6 -2.8406096919120216e-17
SH0_r6 -2.8406096919120216e-17
SL0_r6 -0.0
y4_r6 -0.0
y5_r6 0.0
y6_r6 -0.0
y7_r6 -2.949029909160572e-16
SH1_r6 -0.0
SL1_r6 -0.0
y8_r6 -0.0
y9_r6 1.100465205072787e-16
y10_r6 -0.0
y11_r6 -0.0
SH2_r6 1.0299920638612292e-16
SL2_r6 -0.0
y12_r6 -0.0
y13_r6 0.0
y14_r6 -0.0
y15_r6 0.0
SH3_r6 0.0
SL3_r6 -0.0
y16_r6 -0.0
y17_r6 -0.0
y18_r6 -0.0
y19_r6 -0.0
SH4_r6 -0.0
SL4_r6 -0.0
y20_r6 0.0
y21_r6 5.499073418846478e-16
y22_r6 0.0
y23_r6 2.905661822261152e-16
SH5_r6 3.8163916471489756e-16
SL5_r6 -0.0
y24_r6 0.0
y25_r6 0.9999999999999999
y26_r6 0.0
y27_r6 -2.905661822261152e-16
SH6_r6 0.9999999999999999
SL6_r6 -0.0
y28_r6 0.0
y29_r6 1.0
y30_r6 0.0
y31_r6 0.0
SH7_r6 1.0
SL7_r6 0.0
y32_r6 -0.0
y33_r6 -0.0
y34_r6 -0.0
y35_r6 -0.0
SH8_r6 -0.0
SL8_r6 -0.0
y36_r6 -0.0
y37_r6 -0.0
y38_r6 -0.0
y39_r6 -0.0
SH9_r6 0.0
SL9_r6 -0.0
y40_r6 -0.0
y41_r6 3.347474207548995e-17
y42_r6 -0.0
y43_r6 -0.0
SH10_r6 -4.257661931350576e-16
SL10_r6 -0.0
y44_r6 -0.0
y45_r6 0.0
y46_r6 -0.0
y47_r6 -0.0
SH11_r6 -0.0
SL11_r6 -0.0
y48_r6 0.0
y49_r6 0.0
y50_r6 4.0332320816460765e-17
y51_r6 -1.1817803680091998e-16
SH12_r6 0.0
SL12_r6 -0.0
y52_r6 -0.0
y53_r6 -0.0
y54_r6 -0.0
y55_r6 -0.0
SH13_r6 -0.0
SL13_r6 -0.0
y56_r6 0.0
y57_r6 -1.849919956803392e-18
y58_r6 0.0
y59_r6 0.0
SH14_r6 -0.0
SL14_r6 -0.0
y60_r6 -1.1817803680091998e-16
y61_r6 1.6783449630075609e-16
y62_r6 0.0
y63_r6 -1.1817803680091998e-16
SH15_r6 -0.0
SL15_r6 -0.0
y0_r7 -0.0
y1_r7 -0.0
y2_r7 -0.0
y3_r7 -0.0
SH0_r7 -0.0
SL0_r7 -0.0
y4_r7 -6.158268339717665e-17
y5_r7 3.729655473350135e-17
y6_r7 3.5561831257524545e-17
y7_r7 0.0
SH1_r7 -0.0
SL1_r7 -3.5561831257524545e-17
y8_r7 -0.0
y9_r7 -0.0
y10_r7 -0.0
y11_r7 -0.0
SH2_r7 -0.0
SL2_r7 -0.0
y12_r7 -5.811323644522304e-17
y13_r7 5.811323644522304e-17
y14_r7 3.5561831257524545e-17
y15_r7 -0.0
SH3_r7 -0.0
SL3_r7 -5.4643789493269423e-17
y16_r7 2.2724877535296173e-16
y17_r7 -2.7685102474417356e-16
y18_r7 0.0
y19_r7 -0.0
SH4_r7 -0.0
SL4_r7 -8.506921295864389e-17
y20_r7 1.110494075168278e-16
y21_r7 1.0000000000000002
y22_r7 0.0
y23_r7 0.0
SH5_r7 1.0
SL5_r7 0.9999999999999998
y24_r7 1.1075125191939428e-16
y25_r7 -1.614377034830916e-16
y26_r7 -0.0
y27_r7 -0.0
SH6_r7 0.0
SL6_r7 -3.6944189027443564e-17
y28_r7 -3.144186300207963e-17
y29_r7 1.470178145890344e-16
y30_r7 -0.0
y31_r7 -0.0
SH7_r7 1.6783449630075609e-16
SL7_r7 1.8518173106052416e-16
y32_r7 -0.0
y33_r7 -0.0
y34_r7 -0.0
y35_r7 -0.0
SH8_r7 -0.0
SL8_r7 -0.0
y36_r7 0.0
y37_r7 0.0
y38_r7 0.0
y39_r7 0.0
SH9_r7 -0.0
SL9_r7 0.0
y40_r7 -0.0
y41_r7 -0.0
y42_r7 -0.0
y43_r7 -0.0
SH10_r7 -0.0
SL10_r7 -0.0
y44_r7 0.0
y45_r7 -5.084908188957016e-17
y46_r7 0.0
y47_r7 0.0
SH11_r7 -0.0
SL11_r7 -4.0332320816460765e-17
y48_r7 0.0
y49_r7 -4.787836793695988e-16
y50_r7 -0.0
y51_r7 0.0
SH12_r7 0.0
SL12_r7 -0.0
y52_r7 0.0
y53_r7 7.26415455565288e-17
y54_r7 0.0
y55_r7 0.0
SH13_r7 -0.0
SL13_r7 -0.0
y56_r7 -0.0
y57_r7 -0.0
y58_r7 -0.0
y59_r7 -0.0
SH14_r7 -0.0
SL14_r7 -0.0
y60_r7 0.0
y61_r7 0.0
y62_r7 0.0
y63_r7 0.0
SH15_r7 -1.1817803680091998e-16
SL15_r7 -0.0
y0_r8 -5.876375774871434e-17
y1_r8 -6.158268339717665e-17
y2_r8 -0.0
y3_r8 -3.5670251474773096e-17
SH0_r8 -5.811323644522304e-17
SL0_r8 -0.0
y4_r8 1.2148485342700077e-16
y5_r8 -1.74122868901172e-16
y6_r8 0.0
y7_r8 0.0
SH1_r8 1.0432735404741766e-16
SL1_r8 6.361556247058697e-17
y8_r8 0.0
y9_r8 0.0
y10_r8 -0.0
y11_r8 0.0
SH2_r8 0.0
SL2_r8 -0.0
y12_r8 0.0
y13_r8 0.0
y14_r8 -0.0
y15_r8 -0.0
SH3_r8 -0.0
SL3_r8 -0.0
y16_r8 -0.0
y17_r8 5.217180854000247e-16
y18_r8 -0.0
y19_r8 6.522560269672795e-16
SH4_r8 4.666406150377611e-16
SL4_r8 -0.0
y20_r8 1.2646134139870924e-15
y21_r8 0.9999999999999991
y22_r8 8.500145032286355e-17
y23_r8 0.9999999999999999
SH5_r8 1.0
SL5_r8 1.807581861967833e-15
y24_r8 4.689174395999807e-18
y25_r8 -2.2659825404947043e-17
y26_r8 -1.826880660638075e-17
y27_r8 -0.0
SH6_r8 -2.2659825404947043e-17
SL6_r8 -0.0
y28_r8 -9.71445146547012e-17
y29_r8 8.500145032286355e-17
y30_r8 8.500145032286355e-17
y31_r8 -0.0
SH7_r8 0.0
SL7_r8 7.26415455565288e-17
y32_r8 3.5561831257524545e-17
y33_r8 5.421010862427522e-17
y34_r8 -0.0
y35_r8 -0.0
SH8_r8 3.5561831257524545e-17
SL8_r8 -0.0
y36_r8 0.0
y37_r8 0.0
y38_r8 0.0
y39_r8 0.0
SH9_r8 -0.0
SL9_r8 0.0
y40_r8 0.0
y41_r8 0.0
y42_r8 -0.0
y43_r8 0.0
SH10_r8 0.0
SL10_r8 -0.0
y44_r8 0.0
y45_r8 0.0
y46_r8 -0.0
y47_r8 -0.0
SH11_r8 -0.0
SL11_r8 -0.0
y48_r8 0.0
y49_r8 0.0
y50_r8 0.0
y51_r8 0.0
SH12_r8 0.0
SL12_r8 -0.0
y52_r8 -0.0
y53_r8 -0.0
y54_r8 -0.0
y55_r8 -0.0
SH13_r8 -0.0
SL13_r8 0.0
y56_r8 0.0
y57_r8 0.0
y58_r8 -0.0
y59_r8 0.0
SH14_r8 -0.0
SL14_r8 0.0
y60_r8 0.0
y61_r8 0.0
y62_r8 0.0
y63_r8 0.0
SH15_r8 -0.0
SL15_r8 0.0
y0_r9 -0.0
y1_r9 -9.790345617544105e-17
y2_r9 -0.0
y3_r9 0.0
SH0_r9 -0.0
SL0_r9 -0.0
y4_r9 -0.0
y5_r9 1.1657341758564144e-15
y6_r9 -0.0
y7_r9 1.2377252001094519e-15
SH1_r9 1.042568809062061e-15
SL1_r9 -0.0
y8_r9 -0.0
y9_r9 -1.3010426069826053e-17
y10_r9 -0.0
y11_r9 3.8055496254241206e-17
SH2_r9 0.0
SL2_r9 -0.0
y12_r9 0.0
y13_r9 0.0
y14_r9 0.0
y15_r9 -0.0
SH3_r9 0.0
SL3_r9 -0.0
y16_r9 -0.0
y17_r9 0.0
y18_r9 -0.0
y19_r9 6.158268339717665e-17
SH4_r9 0.0
SL4_r9 -0.0
y20_r9 -0.0
y21_r9 0.9999999999999992
y22_r9 -0.0
y23_r9 0.9999999999999981
SH5_r9 0.9999999999999991
SL5_r9 -0.0
y24_r9 -0.0
y25_r9 1.3552527156068805e-17
y26_r9 -0.0
y27_r9 0.0
SH6_r9 -0.0
SL6_r9 -0.0
y28_r9 -0.0
y29_r9 0.0
y30_r9 -0.0
y31_r9 0.0
SH7_r9 0.0
SL7_r9 -0.0
y32_r9 0.0
y33_r9 0.0
y34_r9 0.0
y35_r9 0.0
SH8_r9 -0.0
SL8_r9 -0.0
y36_r9 -0.0
y37_r9 1.5265566588595902e-16
y38_r9 -0.0
y39_r9 -0.0
SH9_r9 8.500145032286355e-17
SL9_r9 -0.0
y40_r9 -0.0
y41_r9 0.0
y42_r9 -0.0
y43_r9 0.0
SH10_r9 0.0
SL10_r9 -0.0
y44_r9 0.0
y45_r9 0.0
y46_r9 0.0
y47_r9 -0.0
SH11_r9 0.0
SL11_r9 -0.0
y48_r9 -0.0
y49_r9 0.0
y50_r9 -0.0
y51_r9 0.0
SH12_r9 -0.0
SL12_r9 -0.0
y52_r9 -0.0
y53_r9 0.9999999999999999
y54_r9 6.609296443471635e-16
y55_r9 1.0
SH13_r9 1.0
SL13_r9 -0.0
y56_r9 -0.0
y57_r9 0.0
y58_r9 -0.0
y59_r9 0.0
SH14_r9 0.0
SL14_r9 -0.0
y60_r9 0.0
y61_r9 0.0
y62_r9 -0.0
y63_r9 -0.0
SH15_r9 0.0
SL15_r9 -0.0
